c --- [ banner ] -------------------------------------------------------------
c 
c CaDiCaL Radically Simplified CDCL SAT Solver
c Copyright (c) 2016-2021 A. Biere, M. Fleury, N. Froleyks
c 
c Version 1.5.2 a5f15211db36c3956764e18194dd5bd63bf3b5e6
c g++ (GCC) 9.3.0 -Wall -Wextra -O3 -DNDEBUG
c Fri Oct 21 01:27:37 EDT 2022 Linux gra-login3 3.10.0-1160.66.1.el7.x86_64 x86_64
c 
c --- [ limit ] --------------------------------------------------------------
c 
c setting conflict limit to 200000 conflicts (due to '200000')
c 
c --- [ parsing input ] ------------------------------------------------------
c 
c reading DIMACS file from '33.cubes3242.adj'
c opening file to read '33.cubes3242.adj'
c found 'p cnf 6160 1595472' header
c parsed 1595472 clauses in 18.76 seconds process time
c closing file '33.cubes3242.adj'
c after reading 1457566755 bytes 1390.0 MB
c 
c --- [ options ] ------------------------------------------------------------
c 
c all options are set to their default value
c 
c --- [ solving ] ------------------------------------------------------------
c 
c time measured in process time since initialization
c 
c  seconds    reductions  redundant   irredundant
c          MB     restarts       trail       variables
c            level   conflicts       glue         remaining
c 
c * 18.76 1380  0 0   0    0    0  0% 0 1595422 2421 39%
c { 19.28 1407  0 0   0    0    0  0% 0 1595422 2421 39%
c i 19.31 1408 1164 0   0    1    0 33% 0 1595422 2400 39%
c i 21.35 1476 382 0   3   53   49 26% 4 1595422 2398 39%
c i 21.75 1480 350 0   5   60   54 26% 6 1595422 2390 39%
c i 22.29 1488 326 0   7   69   60 26% 15 1595422 2385 39%
c i 23.93 1498 214 0  27  134  120 28% 27 1595422 2384 39%
c i 24.07 1499 186 0  31  157  140 28% 26 1595422 2383 39%
c i 24.25 1499 169 0  34  186  163 28% 28 1595422 2382 39%
c i 24.31 1500 165 0  36  192  168 28% 28 1595422 2381 39%
c - 28.48 1422 120 1  43  301  229 26% 27 178411 2381 39%
c i 28.60 1423 117 1  44  310  234 27% 27 178411 2380 39%
c i 29.19 1376 106 1  67  413  321 27% 30 178411 2374 39%
c i 29.38 1376 99 1  76  462  364 28% 30 178411 2365 38%
c i 29.39 1376 97 1  76  478  378 28% 30 178411 2364 38%
c i 29.39 1376 96 1  76  481  380 28% 29 178411 2363 38%
c i 29.43 1376 91 1  76  529  419 28% 29 178411 2362 38%
c i 29.44 1376 90 1  76  535  423 28% 29 178411 2361 38%
c i 29.51 1376 92 1  80  567  448 28% 31 178411 2360 38%
c } 30.46 1376 71 1 112 1000  761 30% 29 178411 2360 38%
c 
c  seconds    reductions  redundant  irredundant
c          MB     restarts       trail      variables
c            level   conflicts       glue        remaining
c 
c [ 30.46 1376  0 1 112 1000  761  0% 0 178411 2360 38%
c O 30.46 1376 13 1 112 1003  761 28% 12 178411 2360 38%
c i 30.46 1376  9 1 112 1004  761 24% 9 178411 2347 38%
c i 30.52 1376 17 1 112 1021  776 33% 13 178411 2346 38%
c - 30.90 1467 27 2 112 1051  695 33% 22 177949 2346 38%
c i 30.99 1467 29 2 112 1090  719 33% 24 177949 2345 38%
c i 31.01 1467 28 2 112 1132  749 33% 23 177949 2344 38%
c i 31.01 1467 28 2 112 1133  749 33% 22 177949 2343 38%
c i 31.03 1467 28 2 112 1166  778 33% 22 177949 2342 38%
c i 31.03 1467 28 2 112 1168  779 33% 21 177949 2341 38%
c i 31.03 1467 28 2 112 1177  782 33% 21 177949 2340 38%
c i 31.07 1467 27 2 112 1266  835 33% 21 177949 2339 38%
c i 31.07 1467 27 2 112 1285  848 33% 21 177949 2338 38%
c i 31.13 1467 30 2 112 1435  963 33% 24 177949 2337 38%
c i 31.13 1467 30 2 112 1439  966 32% 24 177949 2336 38%
c i 31.13 1467 30 2 112 1440  966 32% 24 177949 2335 38%
c i 31.13 1467 30 2 112 1442  967 32% 24 177949 2334 38%
c i 31.14 1467 30 2 112 1461  979 32% 24 177949 2333 38%
c i 31.14 1467 30 2 112 1462  979 32% 23 177949 2332 38%
c ] 31.14 1467 30 2 112 1479  985 32% 23 177949 2332 38%
c 
c  seconds    reductions  redundant   irredundant
c          MB     restarts       trail       variables
c            level   conflicts       glue         remaining
c 
c 1 31.14 1467 30 2 112 1479  985 32% 23 177949 2332 38%
c 
c --- [ writing output ] -----------------------------------------------------
c 
c writing simplified CNF to DIMACS file 'simp/33.cubes3242.adj.simp1'
c * 31.14 1467 30 2 112 1479  985 32% 23 177949 2332 38%
c opening file to write 'simp/33.cubes3242.adj.simp1'
c writing 'p cnf 6160 177907' header
c closing file 'simp/33.cubes3242.adj.simp1'
c after writing 106510863 bytes 101.6 MB
c wrote 177907 clauses in 0.67 seconds process time
c 
c --- [ writing extension ] --------------------------------------------------
c 
c writing extension stack to 'simp/33.cubes3242.adj.ext1'
c opening file to write 'simp/33.cubes3242.adj.ext1'
c closing file 'simp/33.cubes3242.adj.ext1'
c after writing 10024 bytes 0.0 MB
c wrote 684 witnesses in 0.00 seconds process time
c 
c --- [ result ] -------------------------------------------------------------
c 
s SATISFIABLE
c 
c --- [ run-time profiling ] -------------------------------------------------
c 
c process time taken by individual solving procedures
c (percentage relative to process time for solving)
c 
c        18.76  151.49% parse
c        12.38  100.00% search
c        11.18   90.29% unstable
c         0.69    5.55% stable
c         0.51    4.16% lucky
c         0.00    0.00% simplify
c   =================================
c        12.38   38.93% solve
c 
c last line shows process time for solving
c (percentage relative to total process time)
c 
c --- [ statistics ] ---------------------------------------------------------
c 
c chronological:               452        30.56 %  of conflicts
c conflicts:                  1479       119.43    per second
c decisions:                 18109      1462.29    per second
c fixed:                       684        11.10 %  of all variables
c learned:                    1452        98.17 %  per conflict
c learned_lits:             264642       100.00 %  learned literals
c minimized:                     0         0.00 %  learned literals
c shrunken:                 169911        64.20 %  learned literals
c minishrunken:              14616         5.52 %  learned literals
c propagations:             268392         0.02 M  per second
c reduced:                     101         6.83 %  per conflict
c rephased:                      1      1479.00    interval
c restarts:                    112        13.21    interval
c stabilizing:                   1        32.39 %  of conflicts
c subsumed:                    333         0.01 %  of all clauses
c 
c seconds are measured in process time for solving
c 
c --- [ resources ] ----------------------------------------------------------
c 
c total process time since initialization:        31.81    seconds
c total real time since initialization:           46.34    seconds
c maximum resident set size of process:         1502.30    MB
c 
c --- [ shutting down ] ------------------------------------------------------
c 
c exit 10
WARNING! DIMACS header mismatch: wrong number of variables.
============================[ Problem Statistics ]=============================
|                                                                             |
|  Number of variables:          6120                                         |
|  Number of clauses:          177907                                         |
|  Parse time:                   1.51 s                                       |
|  Simplification time:          0.04 s                                       |
|                                                                             |
============================[ Search Statistics ]====================================================
| Conflicts |          ORIGINAL         |          LEARNT          | Num Sols |      SUBGRAPHS      |
|           |    Vars  Clauses Literals |    Limit  Clauses Lit/Cl |          | Canonical Noncanon. |
=====================================================================================================
|       105 |    6028   177912 22577276 |     2000      104      9 |        0 |        39         5 |
|       334 |    6028   177991 22578719 |     2000      333     35 |        0 |        75        84 |
|       573 |    6028   178005 22579037 |     2000      572     76 |        0 |        82        98 |
|      1140 |    6022   178235 22582689 |     2000     1133     74 |        0 |       168       328 |
|      1683 |    6014   178272 22583377 |     2000     1668     86 |        0 |       180       365 |
|      2499 |    6008   178329 22584643 |     3590     1485     65 |        0 |       196       422 |
|      3766 |    6005   178457 22587362 |     3590     2749     91 |        0 |       225       550 |
|      5516 |    6000   178499 22588272 |     4991     2706     62 |        0 |       238       592 |
|      8166 |    5998   178587 22589865 |     6301     2867     49 |        0 |       269       680 |
|     12368 |    5996   178945 22595254 |     7555     3923     48 |        0 |       365      1038 |
|     18594 |    5992   179405 22601671 |     8776     6369     65 |        0 |       524      1498 |
|     27441 |    5992   179603 22604845 |    11199     5840     42 |        0 |       597      1696 |
|     40668 |    5992   179856 22608876 |    13611     7279     50 |        0 |       681      1949 |
|     60679 |    5945   180406 22617659 |    16009    13088     65 |        0 |       827      2499 |
|     90443 |    5945   180978 22628612 |    19608    17051     74 |        0 |      1047      3071 |
|    134925 |    5945   181671 22639061 |    24407    18732     60 |        0 |      1221      3764 |
|    203481 |    5942   184543 22674979 |    30410    20290     50 |        0 |      1942      6636 |
|    303259 |    5849   184934 22689108 |    37612    19871     33 |        1 |      2332      7887 |
=====================================================================================================
Number of solutions   : 5
Canonical subgraphs   : 2673           (18 /sec)
          order  3    : 1              (250000 /sec)
          order  4    : 1              (500000 /sec)
          order  5    : 1              (250000 /sec)
          order  6    : 1              (47619 /sec)
          order  7    : 1              (7519 /sec)
          order  8    : 2              (1235 /sec)
          order  9    : 6              (289 /sec)
          order 10    : 20             (167 /sec)
          order 11    : 52             (121 /sec)
          order 12    : 78             (103 /sec)
          order 13    : 92             (69 /sec)
          order 14    : 78             (45 /sec)
          order 15    : 568            (30 /sec)
          order 16    : 650            (22 /sec)
          order 17    : 604            (16 /sec)
          order 18    : 366            (11 /sec)
          order 19    : 108            (9 /sec)
          order 20    : 21             (9 /sec)
          order 21    : 18             (10 /sec)
          order 22    : 5              (1 /sec)
Noncanonical subgraphs: 8845           (145 /sec)
          order  3    : 0              (-nan /sec)
          order  4    : 0              (-nan /sec)
          order  5    : 0              (-nan /sec)
          order  6    : 0              (-nan /sec)
          order  7    : 0              (-nan /sec)
          order  8    : 0              (-nan /sec)
          order  9    : 0              (-nan /sec)
          order 10    : 0              (-nan /sec)
          order 11    : 0              (-nan /sec)
          order 12    : 0              (-nan /sec)
          order 13    : 295            (14914 /sec)
          order 14    : 328            (8312 /sec)
          order 15    : 1778           (1410 /sec)
          order 16    : 1173           (639 /sec)
          order 17    : 3895           (110 /sec)
          order 18    : 1189           (74 /sec)
          order 19    : 170            (34 /sec)
          order 20    : 4              (114 /sec)
          order 21    : 0              (-nan /sec)
Canonicity checking   : 146.896 s
Noncanonicity checking: 60.9962 s
Total canonicity time : 207.892 s
database reductions   : 34
restarts              : 1019
conflicts             : 416791         (1224 /sec)
decisions             : 560981         (0.00 % random) (1648 /sec)
propagations          : 39544823       (116162 /sec)
conflict literals     : 40359390       (56.75 % deleted)
actual reward         : 0.131406
Memory used           : 280.00 MB
CPU time              : 340.427 s

UNSATISFIABLE
